PROBLEM NAME: eil51_n13
KNAPSACK DATA TYPE: uncorrelated
DIMENSION: 13
NUMBER OF ITEMS: 60
CAPACITY OF KNAPSACK: 14485
MIN SPEED: 0.1
MAX SPEED: 1
RENTING RATIO: 25.72
EDGE_WEIGHT_TYPE: CEIL_2D
NODE_COORD_SECTION	(INDEX, X, Y):
1	49	49
2	31	32
3	36	16
4	43	67
5	58	27
6	37	69
7	32	22
8	45	35
9	5	6
10	25	55
11	48	28
12	56	37
13	30	40
ITEMS SECTION	(INDEX, PROFIT, WEIGHT, ASSIGNED NODE NUMBER):
1	979	192	4
2	965	77	4
3	928	539	4
4	921	694	4
5	915	880	4
6	861	131	6
7	848	454	6
8	814	834	6
9	813	354	6
10	792	68	6
11	790	280	10
12	789	762	10
13	786	810	10
14	773	586	10
15	753	519	10
16	752	4	13
17	748	144	13
18	714	698	13
19	710	872	13
20	682	337	13
21	652	486	2
22	647	883	2
23	605	134	2
24	585	101	2
25	575	685	2
26	568	646	9
27	560	764	9
28	559	50	9
29	545	431	9
30	537	24	9
31	526	794	3
32	488	354	3
33	477	851	3
34	393	17	3
35	386	893	3
36	374	13	7
37	373	110	7
38	364	139	7
39	363	773	7
40	355	415	7
41	353	938	8
42	320	374	8
43	314	313	8
44	313	593	8
45	264	58	8
46	245	675	11
47	242	954	11
48	234	355	11
49	229	211	11
50	225	696	11
51	217	532	5
52	155	432	5
53	112	139	5
54	111	936	5
55	106	29	5
56	83	194	12
57	70	246	12
58	50	498	12
59	49	227	12
60	26	359	12
